(set-logic QF_S)
(declare-fun var0 () String)
(declare-fun var1 () String)
(declare-fun var2 () Bool)
(declare-fun var3 () String)
(declare-fun var4 () String)
(declare-fun var5 () Int)
(declare-fun var6 () Int)
(assert (str.suffixof var0 var1))
(assert (not var2))
(assert (str.contains (str.substr (str.replace var3 var4 var0) (str.to.int var0) (str.to.int var1)) (str.replace "89v+7$" var4 var4)))
(assert (str.contains (str.at var0 var5) (str.at "4HMG$0" var6)))
(check-sat)